
Gurobi 12.0.3 (linux64) logging started Sat Mar 28 01:53:58 2026

Set parameter LogFile to value "/home/solar-wind/WT_Solar_results_bigM100000_thread4/case24_ieee_rts_theta0.06_epsilon0.03_gurobi_seed20000_num_gen38_N_WDR250_load_scaling_factor1_EIFICA_T24_num_Solar5_num_WT10.txt"
Gurobi Optimizer version 12.0.3 build v12.0.3rc0 (linux64 - "Ubuntu 22.04.5 LTS")

CPU model: Intel(R) Xeon(R) Platinum 8378A CPU @ 3.00GHz, instruction set [SSE2|AVX|AVX2|AVX512]
Thread count: 32 physical cores, 64 logical processors, using up to 4 threads

Non-default parameters:
TimeLimit  14400
MIPGap  0.001
Seed  20000
Threads  4

Academic license 2721591 - for non-commercial use only - registered to fa___@mails.neu.edu.cn
Optimize a model with 622716 rows, 2075 columns and 62640184 nonzeros
Model fingerprint: 0xab996918
Model has 912 quadratic objective terms
Coefficient statistics:
  Matrix range     [3e-07, 6e+01]
  Objective range  [3e+01, 6e+01]
  QObjective range [4e-03, 2e-02]
  Bounds range     [0e+00, 0e+00]
  RHS range        [2e-02, 1e+03]
Presolve removed 536944 rows and 0 columns (presolve time = 5s)...
Presolve removed 537818 rows and 0 columns
Presolve time: 6.17s
Presolved: 84898 rows, 2949 columns, 3077922 nonzeros
Presolved model has 912 quadratic objective terms
Elapsed ordering time = 6s
Ordering time: 10.69s
Elapsed ordering time = 11s
Elapsed ordering time = 15s
Elapsed ordering time = 17s
Elapsed ordering time = 19s
Elapsed ordering time = 21s
Ordering time: 23.02s

Barrier statistics:
 Dense cols : 337
 AA' NZ     : 1.057e+08
 Factor NZ  : 5.873e+08 (roughly 5.0 GB of memory)
 Factor Ops : 5.518e+12 (roughly 30 seconds per iteration)
 Threads    : 4

                  Objective                Residual
Iter       Primal          Dual         Primal    Dual     Compl     Time
   0   5.85302291e+08 -3.03330555e+08  3.75e+04 1.00e+03  9.94e+05    72s
   1   4.77708777e+08 -2.33973395e+08  3.28e+04 8.72e+02  8.68e+05    72s
   2   4.55698135e+08 -2.30917009e+08  3.17e+04 8.44e+02  8.63e+05    72s
   3   3.94970082e+08 -2.16641699e+08  2.87e+04 7.62e+02  8.07e+05    72s
   4   3.31120723e+08 -1.95860862e+08  2.55e+04 6.69e+02  7.12e+05    72s
   5   2.84297333e+08 -1.85902621e+08  2.30e+04 5.96e+02  6.35e+05    72s
   6   2.44261557e+08 -1.88077701e+08  2.05e+04 5.29e+02  5.83e+05    72s
   7   1.93605720e+08 -1.88473581e+08  1.74e+04 4.36e+02  4.85e+05    72s
   8   1.66952547e+08 -1.91691023e+08  1.54e+04 3.84e+02  4.29e+05    72s
   9   1.40293319e+08 -1.95422337e+08  1.35e+04 3.32e+02  3.72e+05    72s
  10   1.19015678e+08 -2.01653172e+08  1.19e+04 2.88e+02  3.25e+05    72s
  11   1.00035922e+08 -2.21241338e+08  1.04e+04 2.48e+02  2.91e+05    73s
  12   8.43320491e+07 -2.35770000e+08  9.10e+03 2.14e+02  2.52e+05    73s
  13   7.07731201e+07 -2.63456247e+08  7.92e+03 1.84e+02  2.25e+05    73s
  14   5.44570754e+07 -2.96689733e+08  6.39e+03 1.46e+02  1.88e+05    73s
  15   4.20872646e+07 -3.18232737e+08  5.12e+03 1.16e+02  1.51e+05    73s
  16   3.16726278e+07 -3.34859540e+08  3.99e+03 8.90e+01  1.17e+05    73s
  17   2.36701619e+07 -3.45874416e+08  3.06e+03 6.77e+01  9.01e+04    73s
  18   1.66338521e+07 -3.50604326e+08  2.20e+03 4.81e+01  6.51e+04    73s
  19   6.27501974e+06 -3.45613198e+08  1.89e+03 1.79e+01  3.35e+04    73s
  20   4.45146225e+06 -3.18424307e+08  1.39e+03 1.21e+01  2.32e+04    73s
  21   3.23722981e+06 -2.87249411e+08  1.02e+03 8.34e+00  1.63e+04    73s
  22   2.06366228e+06 -2.40297879e+08  6.34e+02 4.83e+00  9.86e+03    73s
  23   1.72148359e+06 -2.15304974e+08  5.06e+02 3.81e+00  7.87e+03    73s
  24   1.41889948e+06 -1.88617558e+08  3.87e+02 2.89e+00  6.06e+03    73s
  25   1.16423828e+06 -1.59759153e+08  2.83e+02 2.08e+00  4.45e+03    73s
  26   9.66983923e+05 -1.30276885e+08  1.92e+02 1.40e+00  3.08e+03    74s
  27   8.62397797e+05 -1.09173866e+08  1.22e+02 8.98e-01  2.20e+03    74s
  28   8.10398934e+05 -9.30496103e+07  7.81e+01 5.80e-01  1.64e+03    74s
  29   7.83792311e+05 -8.09137041e+07  5.16e+01 3.83e-01  1.28e+03    74s
  30   7.65616809e+05 -7.12437182e+07  3.72e+01 2.76e-01  1.06e+03    74s
  31   7.55822773e+05 -6.14027643e+07  2.76e+01 2.06e-01  8.70e+02    74s
  32   7.52028291e+05 -5.95676464e+07  2.34e+01 1.77e-01  8.28e+02    74s
  33   7.41396919e+05 -4.76346971e+07  1.05e+01 8.53e-02  6.15e+02    74s
  34   7.40075883e+05 -2.78792942e+07  5.97e+00 4.71e-02  3.52e+02    75s
  35   7.38951433e+05 -2.61947045e+07  4.67e+00 3.86e-02  3.33e+02    75s
  36   7.38701720e+05 -2.48501066e+07  4.45e+00 3.68e-02  3.18e+02    76s
  37   7.37767257e+05 -2.04598814e+07  3.53e+00 2.92e-02  2.55e+02    91s
  38   7.36783888e+05 -1.69969846e+07  2.70e+00 2.23e-02  2.11e+02   106s
  39   7.31924873e+05 -1.33841522e+06  5.26e-06 1.42e-02  2.33e+01   121s
  40   6.99723474e+05  4.16263189e+05  5.61e-07 1.33e-03  3.20e+00   138s
  41   6.59619080e+05  5.72629724e+05  9.41e-07 1.88e-04  9.81e-01   154s
  42   6.44639442e+05  6.24941010e+05  5.44e-06 7.50e-07  2.22e-01   193s
  43   6.41968835e+05  6.36163639e+05  2.23e-07 3.08e-08  6.54e-02   223s
  44   6.41372733e+05  6.39492815e+05  9.79e-09 1.38e-09  2.12e-02   253s
  45   6.41174739e+05  6.40608453e+05  2.16e-10 2.93e-11  6.38e-03   282s
  46   6.41129744e+05  6.40870278e+05  1.95e-10 9.37e-11  2.92e-03   312s
  47   6.41099709e+05  6.41047653e+05  7.23e-10 1.21e-10  5.87e-04   340s
  48   6.41093454e+05  6.41084452e+05  4.31e-10 2.29e-10  1.01e-04   367s
  49   6.41092164e+05  6.41092088e+05  4.47e-09 1.49e-10  8.53e-07   395s
  50   6.41092153e+05  6.41092153e+05  8.63e-10 8.64e-11  1.04e-09   422s

Barrier solved model in 50 iterations and 422.32 seconds (510.81 work units)
Optimal objective 6.41092153e+05

